%chk=s000001.chk
#p freq jun-cc-pvtz m062x

Generated by Multiwfn

0 2
 C              
 H                  1            B1
 H                  1            B2    2            A1
 H                  1            B3    3            A2    2            D1    0
 C                  1            B4    3            A3    4            D2    0
 H                  5            B5    1            A4    3            D3    0
 H                  5            B6    1            A5    3            D4    0
 C                  5            B7    1            A6    3            D5    0
 H                  8            B8    5            A7    1            D6    0
 H                  8            B9    5            A8    1            D7    0
 N                  8           B10    5            A9    1            D8    0
 H                 11           B11    8           A10    5            D9    0
 H                 11           B12    8           A11    5           D10    0
 N                  8           B13    5           A12    1           D11    0
 H                 14           B14    8           A13    5           D12    0
 H                 14           B15    8           A14    5           D13    0

   B1             1.09086568
   B2             1.08884254
   B3             1.09078533
   B4             1.52258456
   B5             1.09438987
   B6             1.09268219
   B7             1.51326790
   B8             1.20574465
   B9             1.09192818
   B10            1.43063986
   B11            1.01108988
   B12            1.01245829
   B13            2.67028040
   B14            1.02423673
   B15            1.02448596
   A1           107.93946250
   A2           107.85408855
   A3           111.33938319
   A4           110.04871779
   A5           110.31260976
   A6           112.38834681
   A7           107.30667907
   A8           111.75995810
   A9           112.88044421
   A10          112.21053705
   A11          111.60376756
   A12          106.05052960
   A13           99.63947554
   A14           95.49311012
   D1           116.08173888
   D2           121.69597254
   D3            58.26437114
   D4           -58.95660024
   D5           179.73133369
   D6           -60.97190855
   D7            53.27586354
   D8           178.01596293
   D9           178.21133093
   D10           56.67544444
   D11          -63.92823036
   D12           94.07504186
   D13          -10.47620195

